33D32945 STP File, STP Format Version 1.0
Section Comment
Name    "hc8p"
Creator "I. Rosseti, M. Poggi de Aragao, C.C. Ribeiro, E. Uchoa, and R.F.Werneck"
Remark  "Hypercube instance"
End

SECTION Graph
Nodes 256
Edges 1024
E 1 129 100
E 1 65 101
E 1 33 108
E 1 17 105
E 1 9 105
E 1 5 102
E 1 3 100
E 1 2 107
E 2 130 107
E 2 66 110
E 2 34 104
E 2 18 105
E 2 10 109
E 2 6 100
E 2 4 100
E 3 131 105
E 3 67 107
E 3 35 100
E 3 19 104
E 3 11 100
E 3 7 104
E 3 4 107
E 4 132 106
E 4 68 110
E 4 36 109
E 4 20 105
E 4 12 101
E 4 8 107
E 5 133 104
E 5 69 107
E 5 37 110
E 5 21 108
E 5 13 102
E 5 7 100
E 5 6 108
E 6 134 103
E 6 70 106
E 6 38 108
E 6 22 110
E 6 14 104
E 6 8 102
E 7 135 110
E 7 71 107
E 7 39 108
E 7 23 107
E 7 15 100
E 7 8 106
E 8 136 109
E 8 72 102
E 8 40 104
E 8 24 108
E 8 16 105
E 9 137 102
E 9 73 103
E 9 41 103
E 9 25 101
E 9 13 105
E 9 11 109
E 9 10 110
E 10 138 100
E 10 74 109
E 10 42 105
E 10 26 105
E 10 14 103
E 10 12 110
E 11 139 105
E 11 75 102
E 11 43 100
E 11 27 110
E 11 15 100
E 11 12 105
E 12 140 104
E 12 76 103
E 12 44 110
E 12 28 105
E 12 16 105
E 13 141 110
E 13 77 100
E 13 45 108
E 13 29 108
E 13 15 109
E 13 14 101
E 14 142 100
E 14 78 107
E 14 46 109
E 14 30 106
E 14 16 108
E 15 143 107
E 15 79 110
E 15 47 109
E 15 31 102
E 15 16 103
E 16 144 103
E 16 80 105
E 16 48 106
E 16 32 109
E 17 145 104
E 17 81 109
E 17 49 102
E 17 25 104
E 17 21 105
E 17 19 105
E 17 18 103
E 18 146 101
E 18 82 101
E 18 50 106
E 18 26 108
E 18 22 100
E 18 20 105
E 19 147 105
E 19 83 110
E 19 51 108
E 19 27 106
E 19 23 109
E 19 20 106
E 20 148 109
E 20 84 101
E 20 52 102
E 20 28 107
E 20 24 101
E 21 149 101
E 21 85 103
E 21 53 100
E 21 29 104
E 21 23 100
E 21 22 107
E 22 150 110
E 22 86 102
E 22 54 101
E 22 30 103
E 22 24 109
E 23 151 107
E 23 87 101
E 23 55 107
E 23 31 104
E 23 24 104
E 24 152 105
E 24 88 101
E 24 56 106
E 24 32 109
E 25 153 106
E 25 89 110
E 25 57 106
E 25 29 101
E 25 27 110
E 25 26 104
E 26 154 101
E 26 90 106
E 26 58 102
E 26 30 105
E 26 28 105
E 27 155 110
E 27 91 101
E 27 59 102
E 27 31 103
E 27 28 106
E 28 156 101
E 28 92 107
E 28 60 106
E 28 32 108
E 29 157 102
E 29 93 105
E 29 61 104
E 29 31 102
E 29 30 100
E 30 158 109
E 30 94 104
E 30 62 101
E 30 32 110
E 31 159 104
E 31 95 101
E 31 63 109
E 31 32 101
E 32 160 101
E 32 96 100
E 32 64 104
E 33 161 102
E 33 97 101
E 33 49 108
E 33 41 105
E 33 37 103
E 33 35 104
E 33 34 108
E 34 162 110
E 34 98 107
E 34 50 102
E 34 42 107
E 34 38 109
E 34 36 102
E 35 163 109
E 35 99 105
E 35 51 105
E 35 43 106
E 35 39 108
E 35 36 108
E 36 164 105
E 36 100 110
E 36 52 106
E 36 44 104
E 36 40 109
E 37 165 107
E 37 101 107
E 37 53 110
E 37 45 110
E 37 39 109
E 37 38 103
E 38 166 105
E 38 102 105
E 38 54 101
E 38 46 104
E 38 40 106
E 39 167 109
E 39 103 104
E 39 55 108
E 39 47 109
E 39 40 107
E 40 168 108
E 40 104 107
E 40 56 108
E 40 48 100
E 41 169 109
E 41 105 105
E 41 57 105
E 41 45 100
E 41 43 107
E 41 42 105
E 42 170 107
E 42 106 107
E 42 58 102
E 42 46 110
E 42 44 109
E 43 171 109
E 43 107 105
E 43 59 101
E 43 47 104
E 43 44 110
E 44 172 102
E 44 108 104
E 44 60 103
E 44 48 105
E 45 173 109
E 45 109 104
E 45 61 105
E 45 47 108
E 45 46 104
E 46 174 102
E 46 110 110
E 46 62 101
E 46 48 106
E 47 175 106
E 47 111 100
E 47 63 100
E 47 48 108
E 48 176 108
E 48 112 103
E 48 64 104
E 49 177 107
E 49 113 107
E 49 57 102
E 49 53 109
E 49 51 107
E 49 50 109
E 50 178 101
E 50 114 100
E 50 58 108
E 50 54 106
E 50 52 102
E 51 179 102
E 51 115 100
E 51 59 104
E 51 55 110
E 51 52 110
E 52 180 104
E 52 116 102
E 52 60 107
E 52 56 103
E 53 181 108
E 53 117 108
E 53 61 104
E 53 55 103
E 53 54 102
E 54 182 100
E 54 118 102
E 54 62 110
E 54 56 102
E 55 183 109
E 55 119 101
E 55 63 104
E 55 56 106
E 56 184 101
E 56 120 109
E 56 64 101
E 57 185 110
E 57 121 102
E 57 61 102
E 57 59 101
E 57 58 102
E 58 186 106
E 58 122 107
E 58 62 108
E 58 60 107
E 59 187 108
E 59 123 107
E 59 63 106
E 59 60 100
E 60 188 106
E 60 124 102
E 60 64 103
E 61 189 107
E 61 125 101
E 61 63 108
E 61 62 105
E 62 190 106
E 62 126 106
E 62 64 103
E 63 191 107
E 63 127 101
E 63 64 101
E 64 192 105
E 64 128 109
E 65 193 108
E 65 97 106
E 65 81 108
E 65 73 103
E 65 69 101
E 65 67 105
E 65 66 103
E 66 194 106
E 66 98 105
E 66 82 104
E 66 74 102
E 66 70 104
E 66 68 104
E 67 195 104
E 67 99 105
E 67 83 104
E 67 75 103
E 67 71 100
E 67 68 104
E 68 196 102
E 68 100 107
E 68 84 107
E 68 76 105
E 68 72 108
E 69 197 107
E 69 101 110
E 69 85 105
E 69 77 110
E 69 71 103
E 69 70 105
E 70 198 105
E 70 102 107
E 70 86 104
E 70 78 106
E 70 72 110
E 71 199 101
E 71 103 107
E 71 87 103
E 71 79 105
E 71 72 105
E 72 200 109
E 72 104 100
E 72 88 103
E 72 80 107
E 73 201 106
E 73 105 110
E 73 89 102
E 73 77 110
E 73 75 102
E 73 74 109
E 74 202 107
E 74 106 105
E 74 90 108
E 74 78 100
E 74 76 101
E 75 203 107
E 75 107 107
E 75 91 104
E 75 79 106
E 75 76 108
E 76 204 110
E 76 108 107
E 76 92 103
E 76 80 108
E 77 205 101
E 77 109 100
E 77 93 105
E 77 79 100
E 77 78 101
E 78 206 109
E 78 110 108
E 78 94 108
E 78 80 104
E 79 207 100
E 79 111 106
E 79 95 105
E 79 80 100
E 80 208 105
E 80 112 104
E 80 96 102
E 81 209 104
E 81 113 106
E 81 89 107
E 81 85 107
E 81 83 105
E 81 82 103
E 82 210 108
E 82 114 104
E 82 90 107
E 82 86 103
E 82 84 100
E 83 211 101
E 83 115 105
E 83 91 108
E 83 87 102
E 83 84 100
E 84 212 100
E 84 116 101
E 84 92 107
E 84 88 103
E 85 213 100
E 85 117 105
E 85 93 105
E 85 87 105
E 85 86 104
E 86 214 101
E 86 118 103
E 86 94 109
E 86 88 107
E 87 215 106
E 87 119 107
E 87 95 103
E 87 88 100
E 88 216 110
E 88 120 105
E 88 96 100
E 89 217 109
E 89 121 100
E 89 93 104
E 89 91 105
E 89 90 106
E 90 218 108
E 90 122 107
E 90 94 105
E 90 92 100
E 91 219 101
E 91 123 110
E 91 95 102
E 91 92 103
E 92 220 106
E 92 124 106
E 92 96 101
E 93 221 106
E 93 125 110
E 93 95 103
E 93 94 109
E 94 222 110
E 94 126 102
E 94 96 102
E 95 223 104
E 95 127 108
E 95 96 109
E 96 224 102
E 96 128 108
E 97 225 107
E 97 113 104
E 97 105 102
E 97 101 107
E 97 99 101
E 97 98 102
E 98 226 101
E 98 114 106
E 98 106 100
E 98 102 101
E 98 100 106
E 99 227 104
E 99 115 100
E 99 107 107
E 99 103 104
E 99 100 109
E 100 228 101
E 100 116 110
E 100 108 100
E 100 104 100
E 101 229 105
E 101 117 108
E 101 109 110
E 101 103 102
E 101 102 103
E 102 230 108
E 102 118 105
E 102 110 108
E 102 104 107
E 103 231 107
E 103 119 108
E 103 111 100
E 103 104 102
E 104 232 102
E 104 120 106
E 104 112 107
E 105 233 106
E 105 121 104
E 105 109 102
E 105 107 102
E 105 106 107
E 106 234 101
E 106 122 108
E 106 110 101
E 106 108 100
E 107 235 107
E 107 123 101
E 107 111 110
E 107 108 105
E 108 236 106
E 108 124 110
E 108 112 100
E 109 237 106
E 109 125 107
E 109 111 105
E 109 110 100
E 110 238 104
E 110 126 105
E 110 112 108
E 111 239 100
E 111 127 104
E 111 112 110
E 112 240 105
E 112 128 103
E 113 241 104
E 113 121 108
E 113 117 102
E 113 115 101
E 113 114 104
E 114 242 110
E 114 122 110
E 114 118 102
E 114 116 100
E 115 243 101
E 115 123 105
E 115 119 101
E 115 116 105
E 116 244 101
E 116 124 109
E 116 120 104
E 117 245 104
E 117 125 103
E 117 119 107
E 117 118 106
E 118 246 109
E 118 126 108
E 118 120 109
E 119 247 107
E 119 127 104
E 119 120 110
E 120 248 106
E 120 128 103
E 121 249 105
E 121 125 105
E 121 123 104
E 121 122 102
E 122 250 100
E 122 126 104
E 122 124 105
E 123 251 103
E 123 127 101
E 123 124 102
E 124 252 108
E 124 128 105
E 125 253 107
E 125 127 109
E 125 126 102
E 126 254 107
E 126 128 102
E 127 255 104
E 127 128 100
E 128 256 105
E 129 193 102
E 129 161 108
E 129 145 105
E 129 137 100
E 129 133 102
E 129 131 107
E 129 130 104
E 130 194 102
E 130 162 110
E 130 146 101
E 130 138 108
E 130 134 110
E 130 132 101
E 131 195 106
E 131 163 100
E 131 147 103
E 131 139 103
E 131 135 105
E 131 132 109
E 132 196 109
E 132 164 107
E 132 148 103
E 132 140 108
E 132 136 106
E 133 197 100
E 133 165 100
E 133 149 101
E 133 141 108
E 133 135 100
E 133 134 105
E 134 198 110
E 134 166 102
E 134 150 102
E 134 142 100
E 134 136 107
E 135 199 107
E 135 167 105
E 135 151 102
E 135 143 107
E 135 136 104
E 136 200 102
E 136 168 102
E 136 152 104
E 136 144 105
E 137 201 109
E 137 169 110
E 137 153 104
E 137 141 100
E 137 139 105
E 137 138 100
E 138 202 108
E 138 170 106
E 138 154 109
E 138 142 103
E 138 140 102
E 139 203 105
E 139 171 104
E 139 155 104
E 139 143 110
E 139 140 110
E 140 204 109
E 140 172 109
E 140 156 103
E 140 144 101
E 141 205 110
E 141 173 107
E 141 157 105
E 141 143 110
E 141 142 107
E 142 206 108
E 142 174 105
E 142 158 106
E 142 144 101
E 143 207 110
E 143 175 109
E 143 159 101
E 143 144 100
E 144 208 103
E 144 176 101
E 144 160 101
E 145 209 105
E 145 177 100
E 145 153 106
E 145 149 109
E 145 147 105
E 145 146 107
E 146 210 108
E 146 178 107
E 146 154 100
E 146 150 102
E 146 148 107
E 147 211 103
E 147 179 100
E 147 155 101
E 147 151 110
E 147 148 102
E 148 212 104
E 148 180 106
E 148 156 101
E 148 152 100
E 149 213 107
E 149 181 108
E 149 157 107
E 149 151 100
E 149 150 106
E 150 214 110
E 150 182 110
E 150 158 104
E 150 152 105
E 151 215 109
E 151 183 110
E 151 159 106
E 151 152 107
E 152 216 105
E 152 184 105
E 152 160 101
E 153 217 110
E 153 185 106
E 153 157 103
E 153 155 105
E 153 154 107
E 154 218 107
E 154 186 101
E 154 158 106
E 154 156 106
E 155 219 107
E 155 187 105
E 155 159 106
E 155 156 106
E 156 220 104
E 156 188 101
E 156 160 105
E 157 221 108
E 157 189 100
E 157 159 100
E 157 158 105
E 158 222 103
E 158 190 100
E 158 160 102
E 159 223 101
E 159 191 104
E 159 160 106
E 160 224 106
E 160 192 106
E 161 225 110
E 161 177 108
E 161 169 105
E 161 165 105
E 161 163 107
E 161 162 107
E 162 226 104
E 162 178 105
E 162 170 105
E 162 166 107
E 162 164 105
E 163 227 103
E 163 179 106
E 163 171 103
E 163 167 107
E 163 164 105
E 164 228 110
E 164 180 102
E 164 172 104
E 164 168 106
E 165 229 108
E 165 181 110
E 165 173 107
E 165 167 109
E 165 166 105
E 166 230 102
E 166 182 101
E 166 174 109
E 166 168 102
E 167 231 107
E 167 183 100
E 167 175 110
E 167 168 103
E 168 232 109
E 168 184 103
E 168 176 110
E 169 233 105
E 169 185 101
E 169 173 104
E 169 171 107
E 169 170 104
E 170 234 101
E 170 186 108
E 170 174 101
E 170 172 104
E 171 235 103
E 171 187 103
E 171 175 108
E 171 172 103
E 172 236 103
E 172 188 100
E 172 176 106
E 173 237 105
E 173 189 102
E 173 175 101
E 173 174 110
E 174 238 109
E 174 190 105
E 174 176 104
E 175 239 108
E 175 191 101
E 175 176 101
E 176 240 100
E 176 192 101
E 177 241 105
E 177 185 104
E 177 181 109
E 177 179 104
E 177 178 104
E 178 242 107
E 178 186 103
E 178 182 100
E 178 180 108
E 179 243 109
E 179 187 110
E 179 183 109
E 179 180 108
E 180 244 101
E 180 188 106
E 180 184 100
E 181 245 108
E 181 189 105
E 181 183 109
E 181 182 103
E 182 246 109
E 182 190 106
E 182 184 104
E 183 247 108
E 183 191 105
E 183 184 110
E 184 248 104
E 184 192 106
E 185 249 108
E 185 189 109
E 185 187 103
E 185 186 102
E 186 250 108
E 186 190 107
E 186 188 109
E 187 251 100
E 187 191 107
E 187 188 109
E 188 252 103
E 188 192 100
E 189 253 101
E 189 191 104
E 189 190 101
E 190 254 107
E 190 192 106
E 191 255 108
E 191 192 109
E 192 256 108
E 193 225 106
E 193 209 109
E 193 201 109
E 193 197 105
E 193 195 101
E 193 194 104
E 194 226 104
E 194 210 107
E 194 202 101
E 194 198 100
E 194 196 101
E 195 227 105
E 195 211 107
E 195 203 102
E 195 199 104
E 195 196 110
E 196 228 106
E 196 212 107
E 196 204 109
E 196 200 103
E 197 229 109
E 197 213 108
E 197 205 104
E 197 199 100
E 197 198 105
E 198 230 105
E 198 214 104
E 198 206 105
E 198 200 108
E 199 231 110
E 199 215 103
E 199 207 101
E 199 200 101
E 200 232 100
E 200 216 110
E 200 208 104
E 201 233 102
E 201 217 110
E 201 205 109
E 201 203 102
E 201 202 101
E 202 234 102
E 202 218 103
E 202 206 106
E 202 204 104
E 203 235 106
E 203 219 104
E 203 207 104
E 203 204 104
E 204 236 106
E 204 220 104
E 204 208 101
E 205 237 107
E 205 221 110
E 205 207 107
E 205 206 104
E 206 238 109
E 206 222 109
E 206 208 108
E 207 239 104
E 207 223 100
E 207 208 105
E 208 240 107
E 208 224 107
E 209 241 107
E 209 217 108
E 209 213 104
E 209 211 103
E 209 210 104
E 210 242 103
E 210 218 107
E 210 214 101
E 210 212 103
E 211 243 107
E 211 219 109
E 211 215 103
E 211 212 101
E 212 244 106
E 212 220 100
E 212 216 110
E 213 245 104
E 213 221 105
E 213 215 103
E 213 214 102
E 214 246 103
E 214 222 109
E 214 216 101
E 215 247 106
E 215 223 100
E 215 216 105
E 216 248 104
E 216 224 101
E 217 249 108
E 217 221 107
E 217 219 100
E 217 218 108
E 218 250 106
E 218 222 103
E 218 220 104
E 219 251 103
E 219 223 105
E 219 220 107
E 220 252 109
E 220 224 102
E 221 253 105
E 221 223 104
E 221 222 100
E 222 254 100
E 222 224 102
E 223 255 106
E 223 224 109
E 224 256 104
E 225 241 109
E 225 233 103
E 225 229 101
E 225 227 103
E 225 226 110
E 226 242 106
E 226 234 104
E 226 230 105
E 226 228 106
E 227 243 110
E 227 235 104
E 227 231 100
E 227 228 104
E 228 244 106
E 228 236 108
E 228 232 109
E 229 245 101
E 229 237 101
E 229 231 107
E 229 230 109
E 230 246 106
E 230 238 107
E 230 232 110
E 231 247 100
E 231 239 110
E 231 232 102
E 232 248 110
E 232 240 105
E 233 249 103
E 233 237 107
E 233 235 106
E 233 234 109
E 234 250 109
E 234 238 107
E 234 236 108
E 235 251 107
E 235 239 103
E 235 236 105
E 236 252 107
E 236 240 103
E 237 253 109
E 237 239 104
E 237 238 110
E 238 254 103
E 238 240 110
E 239 255 101
E 239 240 104
E 240 256 109
E 241 249 110
E 241 245 103
E 241 243 105
E 241 242 105
E 242 250 108
E 242 246 110
E 242 244 107
E 243 251 102
E 243 247 110
E 243 244 106
E 244 252 101
E 244 248 102
E 245 253 109
E 245 247 102
E 245 246 101
E 246 254 109
E 246 248 106
E 247 255 106
E 247 248 109
E 248 256 107
E 249 253 104
E 249 251 109
E 249 250 107
E 250 254 101
E 250 252 100
E 251 255 107
E 251 252 106
E 252 256 105
E 253 255 106
E 253 254 100
E 254 256 103
E 255 256 109
End

Section Terminals
Terminals 128
T 1
T 4
T 6
T 7
T 10
T 11
T 13
T 16
T 18
T 19
T 21
T 24
T 25
T 28
T 30
T 31
T 34
T 35
T 37
T 40
T 41
T 44
T 46
T 47
T 49
T 52
T 54
T 55
T 58
T 59
T 61
T 64
T 66
T 67
T 69
T 72
T 73
T 76
T 78
T 79
T 81
T 84
T 86
T 87
T 90
T 91
T 93
T 96
T 97
T 100
T 102
T 103
T 106
T 107
T 109
T 112
T 114
T 115
T 117
T 120
T 121
T 124
T 126
T 127
T 130
T 131
T 133
T 136
T 137
T 140
T 142
T 143
T 145
T 148
T 150
T 151
T 154
T 155
T 157
T 160
T 161
T 164
T 166
T 167
T 170
T 171
T 173
T 176
T 178
T 179
T 181
T 184
T 185
T 188
T 190
T 191
T 193
T 196
T 198
T 199
T 202
T 203
T 205
T 208
T 210
T 211
T 213
T 216
T 217
T 220
T 222
T 223
T 226
T 227
T 229
T 232
T 233
T 236
T 238
T 239
T 241
T 244
T 246
T 247
T 250
T 251
T 253
T 256
End

EOF
